NAME : mEgtspf.pid30478.gtsp.142061387.tour
COMMENT : Length = 142061387
COMMENT : Found by LKH [Keld Helsgaun] Fri Mar  7 02:47:40 2025
TYPE : TOUR
DIMENSION : 90
TOUR_SECTION
1
36
37
38
35
4
2
46
43
44
45
5
20
21
22
19
10
83
84
85
86
9
65
66
63
64
32
33
34
31
80
81
82
79
6
55
56
57
58
76
77
78
75
51
52
53
54
60
61
62
59
41
42
39
40
11
12
13
14
3
68
69
70
67
23
24
25
26
28
29
30
27
87
88
89
90
17
18
15
16
49
50
47
48
74
71
72
73
7
8
-1
EOF
